PointerNetwork/Ptr_Net_TSPTW/benchmark/n20w60/n20w60.003.txt.solution
1 11 12 8 16 10 9 18 14 6 4 5 3 13 19 2 17 20 15 7 21 
352
